11 11
0 2 2 4 100 100 100 100 4 100 6 
2 0 4 2 100 100 100 100 4 4 100 
2 4 0 2 100 100 100 100 2 100 4 
4 2 2 0 100 100 100 100 2 2 100 
100 100 100 100 0 3 2 5 2 2 100 
100 100 100 100 3 0 3 2 3 100 3 
100 100 100 100 2 3 0 3 4 4 100 
100 100 100 100 5 2 3 0 5 100 5 
4 4 2 2 2 3 4 5 0 100 100 
100 4 100 2 2 100 4 100 100 0 100 
6 100 4 100 100 3 100 5 100 100 0 
